8346
22, 1, 49, 35, 36, 39, 40, 38, 15, 6, 5, 24, 48, 37, 34, 44, 46, 16, 50, 20, 23, 30, 29, 47, 26, 12, 51, 11, 52, 14, 13, 27, 28, 25, 4, 43, 33, 10, 9, 8, 41, 19, 45, 32, 31, 21, 42, 2, 7, 17, 3, 18
